unsat
(forall ((A (_ BitVec 1))
         (B (_ BitVec 10))
         (C (_ BitVec 1))
         (D (_ BitVec 1))
         (E (_ BitVec 1))
         (F (_ BitVec 1))
         (G (_ BitVec 1))
         (H (_ BitVec 1))
         (I (_ BitVec 1))
         (J (_ BitVec 1))
         (K (_ BitVec 1))
         (L (_ BitVec 1))
         (M (_ BitVec 1))
         (N (_ BitVec 1))
         (O (_ BitVec 1))
         (P (_ BitVec 1))
         (Q (_ BitVec 1)))
  (! (= (INV!slice!1 A B C D E F G H I J K L M N O P Q)
        (and (not (= A #b1))
             (= C #b0)
             (= G #b0)
             (= I #b0)
             (= K #b0)
             (not (= E #b1))))
     :weight 0))
